NAME : ClusterId_1004 
COMMENT : (Gillet and Johnson) 
TYPE : CVRP 
DIMENSION : 30 
EDGE_WEIGHT_TYPE : EUC_2D 
CAPACITY : 500 
NODE_COORD_SECTION 
1004 513 2125 
906 81 875 
950 241 885 
786 34 1588 
960 313 1015 
116 547 855 
706 223 1686 
114 280 1529 
23 326 1761 
150 277 1953 
490 216 2206 
895 274 2086 
826 115 3229 
405 206 3331 
671 493 1698 
385 512 1729 
552 242 3400 
861 493 1871 
782 375 2569 
593 465 2250 
125 483 2271 
661 454 2440 
204 447 2791 
614 497 3223 
148 520 3234 
292 679 2375 
127 632 2888 
970 754 2247 
718 645 3113 
39 813 3010 
DEMAND_SECTION 
1004 1271
906 39
950 43
786 55
960 36
116 36
706 37
114 43
23 36
150 32
490 28
895 27
826 50
405 39
671 35
385 34
552 33
861 28
782 25
593 56
125 55
661 39
204 33
614 33
148 55
292 45
127 36
970 31
718 32
39 42
DEPOT_SECTION 
1004
 -1
EOF